p cnf 14 64
7 9 -14 0
1 -2 4 0
-6 7 14 0
2 -9 13 0
1 -7 9 0
2 10 -11 0
6 -12 -13 0
2 13 14 0
3 -7 -9 0
-2 3 5 0
2 3 14 0
-5 9 -12 0
2 5 -8 0
-4 -7 13 0
-1 8 13 0
-4 6 8 0
-1 -2 -8 0
3 8 -11 0
-8 -10 12 0
1 -2 -14 0
2 -6 -10 0
2 -5 6 0
4 -7 -10 0
-7 -9 -14 0
-7 -9 -11 0
-1 4 -11 0
-6 -13 -14 0
-7 12 13 0
-4 -7 -9 0
4 -11 -12 0
-5 -8 -14 0
2 4 -10 0
-5 6 14 0
-5 -6 13 0
-1 -4 -6 0
6 12 -14 0
1 -10 -13 0
5 -9 10 0
5 9 11 0
-7 -12 -13 0
1 8 -10 0
-1 -3 -11 0
1 -7 12 0
-5 -7 11 0
3 -8 11 0
-5 -6 10 0
1 2 6 0
-4 -6 -8 0
-5 6 11 0
2 6 7 0
3 6 -13 0
-5 -6 14 0
-7 -9 10 0
1 3 10 0
-6 -12 -13 0
-2 4 -13 0
7 8 13 0
3 -5 8 0
-5 11 -13 0
-7 9 14 0
-4 5 11 0
8 9 -12 0
-6 10 11 0
-9 11 -12 0
